This is Ipopt version 3.10.0, running with linear solver ma27.

Number of nonzeros in equality constraint Jacobian...:        0
Number of nonzeros in inequality constraint Jacobian.:       48
Number of nonzeros in Lagrangian Hessian.............:        0

Total number of variables............................:        6
                     variables with only lower bounds:        0
                variables with lower and upper bounds:        6
                     variables with only upper bounds:        0
Total number of equality constraints.................:        0
Total number of inequality constraints...............:        8
        inequality constraints with only lower bounds:        0
   inequality constraints with lower and upper bounds:        0
        inequality constraints with only upper bounds:        8

iter    objective    inf_pr   inf_du lg(mu)  ||d||  lg(rg) alpha_du alpha_pr  ls
   0  7.6646331e+00 2.46e+00 1.15e+00   0.0 0.00e+00    -  0.00e+00 0.00e+00   0
   1  9.2753369e+00 1.58e+00 1.02e+01  -0.5 1.48e+00    -  5.35e-01 4.93e-01f  1
   2  9.8831536e+00 7.38e-01 5.89e+00  -0.5 9.42e-01    -  9.84e-01 5.81e-01h  1
   3  1.5250664e+01 3.56e-01 3.95e+01  -0.2 1.69e+00    -  7.91e-01 8.77e-01h  1
   4  1.4506434e+01 2.19e-01 6.43e+00  -0.0 8.55e-01    -  5.66e-01 7.05e-01f  1
   5  1.5232697e+01 1.15e-01 6.44e+00  -0.8 3.64e-01    -  9.86e-01 5.70e-01h  1
   6  1.5560936e+01 8.52e-02 1.31e+01  -2.1 2.19e-01    -  9.96e-01 2.55e-01h  1
   7  1.6380023e+01 3.89e-02 1.54e+01  -2.4 3.70e-01    -  1.00e+00 5.28e-01h  1
   8  1.7268566e+01 0.00e+00 3.58e+00  -3.2 3.45e-01    -  1.00e+00 1.00e+00h  1
   9  1.6961553e+01 6.56e-03 2.30e+00  -3.1 2.38e-01    -  1.00e+00 1.00e+00f  1
iter    objective    inf_pr   inf_du lg(mu)  ||d||  lg(rg) alpha_du alpha_pr  ls
  10  1.6909222e+01 2.31e-03 4.72e-01  -3.6 1.05e-01    -  1.00e+00 9.99e-01h  1
  11  1.6968978e+01 0.00e+00 1.28e-01  -4.4 1.54e-02    -  1.00e+00 9.77e-01h  1
  12  1.6968034e+01 4.73e-04 1.96e-02  -5.8 3.73e-03    -  1.00e+00 1.00e+00h  1
  13  1.6973037e+01 0.00e+00 2.59e-02  -7.4 1.35e-03    -  1.00e+00 1.00e+00H  1
  14  1.6969599e+01 8.37e-04 3.85e-02  -9.3 1.38e-03    -  1.00e+00 1.00e+00h  1
  15  1.6967208e+01 0.00e+00 8.45e-02  -9.4 1.53e-03    -  1.00e+00 1.00e+00h  1
  16  1.6966395e+01 3.08e-04 4.04e-02 -11.0 3.83e-04    -  1.00e+00 1.00e+00h  1

Number of Iterations....: 16

                                   (scaled)                 (unscaled)
Objective...............:   1.6966394621198692e+01    1.6966394621198692e+01
Dual infeasibility......:   4.0384991439833734e-02    4.0384991439833734e-02
Constraint violation....:   3.0822070270649678e-04    3.0822070270649678e-04
Complementarity.........:   1.1396490856957105e-11    1.1396490856957105e-11
Overall NLP error.......:   4.0384991439833734e-02    4.0384991439833734e-02


Number of objective function evaluations             = 18
Number of objective gradient evaluations             = 17
Number of equality constraint evaluations            = 0
Number of inequality constraint evaluations          = 18
Number of equality constraint Jacobian evaluations   = 0
Number of inequality constraint Jacobian evaluations = 17
Number of Lagrangian Hessian evaluations             = 0
Total CPU secs in IPOPT (w/o function evaluations)   =      0.024
Total CPU secs in NLP function evaluations           =    363.618

EXIT: Stopping optimization at current point as requested by user.
